Route #1: 53 28 34 12 56 21 32 35 55 31 3 20 
Route #2: 17 36 49 37 33 50 14 4 
Route #3: 22 30 38 8 16 25 7 54 
Route #4: 19 11 9 18 52 15 45 29 47 
Route #5: 44 24 23 51 39 10 13 6 41 
Route #6: 2 48 27 5 40 43 42 46 
Route #7: 26 
cost 741.087
